************************************************************************
file with basedata            : mm28_.bas
initial value random generator: 1298263090
************************************************************************
projects                      :  1
jobs (incl. supersource/sink ):  12
horizon                       :  91
RESOURCES
  - renewable                 :  2   R
  - nonrenewable              :  2   N
  - doubly constrained        :  0   D
************************************************************************
PROJECT INFORMATION:
pronr.  #jobs rel.date duedate tardcost  MPM-Time
    1     10      0       18        4       18
************************************************************************
PRECEDENCE RELATIONS:
jobnr.    #modes  #successors   successors
   0        1          3           1   2   3
   1        3          3           4   5  10
   2        3          1          10
   3        3          3           5   7  10
   4        3          1           6
   5        3          1           8
   6        3          1           7
   7        3          2           8   9
   8        3          1          11
   9        3          1          11
  10        3          1          11
  11        1          0        
************************************************************************
REQUESTS/DURATIONS:
jobnr. mode duration  R 1  R 2  R 3  R 4  E(W 1)
------------------------------------------------------------------------
  0      1     0       0    0    0    0     0
  1      1     1       5    0    8    0    13
  2      1     1       0    3    6    0     9
  3      1     1       5    0    8    0    13
  4      1     3       4    0    0    2    18
  5      1     7       4    0    0    5    63
  6      1     5       9    0    7    0    80
  7      1     2       0    4    8    0    24
  8      1     7       0    8    0    4    84
  9      1     6       0    5    0    6    66
 10      1     1       0   10    0    9    19
 11      1     0       0    0    0    0     0
************************************************************************
RESOURCEAVAILABILITIES:
  R 1
   155
************************************************************************
RESOURCE LIMITS:
jobnr.  l(R 1)  u(R 1)
------------------------------------------------------------------------
  0        0       0
  1        7      13
  2        5       9
  3        7      13
  4        3       6
  5        5       9
  6        9      16
  7        6      12
  8        6      12
  9        6      11
 10       10      19
 11        0       0
************************************************************************
SCENARIOS:
------------------------------------------------------------------------
RESOURCE k = 1
s = 1: (0, 10, 14, 14, 14, 66, 92, 24, 81, 60, 24, 0)
s = 2: (0, 11, 7, 17, 19, 73, 102, 27, 81, 35, 12, 0)
s = 3: (0, 10, 8, 8, 12, 47, 113, 23, 56, 97, 34, 0)
s = 4: (0, 20, 11, 15, 22, 61, 50, 19, 90, 52, 28, 0)
s = 5: (0, 8, 6, 17, 23, 51, 79, 24, 91, 63, 14, 0)
s = 6: (0, 12, 15, 15, 20, 51, 85, 35, 108, 58, 22, 0)
s = 7: (0, 14, 13, 7, 15, 65, 88, 19, 106, 71, 11, 0)
s = 8: (0, 16, 8, 9, 15, 89, 96, 14, 86, 81, 20, 0)
s = 9: (0, 12, 13, 9, 15, 102, 112, 19, 71, 46, 22, 0)
s = 10: (0, 13, 8, 11, 14, 54, 112, 32, 70, 70, 19, 0)
s = 11: (0, 21, 11, 8, 11, 87, 71, 21, 127, 53, 33, 0)
s = 12: (0, 11, 10, 12, 16, 93, 108, 18, 65, 81, 19, 0)
s = 13: (0, 13, 8, 15, 21, 70, 82, 26, 47, 47, 22, 0)
s = 14: (0, 11, 10, 22, 10, 35, 59, 24, 106, 65, 11, 0)
s = 15: (0, 20, 12, 23, 19, 67, 68, 21, 50, 70, 14, 0)
s = 16: (0, 12, 11, 22, 27, 83, 63, 22, 64, 61, 16, 0)
s = 17: (0, 11, 8, 17, 15, 54, 82, 14, 104, 59, 18, 0)
s = 18: (0, 12, 6, 15, 20, 70, 137, 22, 102, 42, 21, 0)
s = 19: (0, 16, 12, 22, 18, 74, 67, 31, 109, 47, 31, 0)
s = 20: (0, 14, 10, 11, 18, 55, 90, 25, 104, 54, 20, 0)
s = 21: (0, 13, 10, 18, 27, 55, 65, 30, 78, 76, 17, 0)
s = 22: (0, 13, 13, 22, 14, 85, 67, 20, 70, 86, 18, 0)
s = 23: (0, 11, 9, 14, 14, 56, 70, 18, 68, 47, 25, 0)
s = 24: (0, 12, 7, 18, 32, 57, 85, 30, 126, 83, 20, 0)
s = 25: (0, 11, 11, 12, 31, 57, 78, 16, 67, 86, 19, 0)
s = 26: (0, 9, 9, 15, 15, 50, 75, 16, 50, 62, 27, 0)
s = 27: (0, 12, 10, 12, 19, 39, 131, 34, 66, 67, 14, 0)
s = 28: (0, 17, 11, 14, 11, 81, 51, 26, 78, 85, 19, 0)
s = 29: (0, 17, 7, 12, 19, 100, 112, 27, 142, 54, 18, 0)
s = 30: (0, 16, 7, 13, 15, 73, 78, 22, 73, 64, 11, 0)
s = 31: (0, 10, 10, 9, 18, 79, 82, 33, 128, 71, 16, 0)
s = 32: (0, 8, 11, 12, 18, 50, 81, 25, 52, 40, 14, 0)
s = 33: (0, 14, 12, 21, 17, 58, 154, 22, 123, 59, 20, 0)
s = 34: (0, 12, 13, 11, 17, 41, 60, 18, 73, 108, 15, 0)
s = 35: (0, 9, 8, 15, 17, 39, 96, 19, 95, 47, 37, 0)
s = 36: (0, 12, 10, 11, 28, 84, 103, 26, 132, 65, 27, 0)
s = 37: (0, 15, 10, 20, 21, 41, 75, 23, 82, 79, 20, 0)
s = 38: (0, 8, 8, 14, 14, 66, 91, 31, 117, 69, 23, 0)
s = 39: (0, 19, 11, 16, 14, 46, 81, 20, 84, 51, 16, 0)
s = 40: (0, 8, 15, 17, 17, 55, 64, 21, 94, 72, 17, 0)
s = 41: (0, 14, 9, 11, 21, 60, 104, 21, 72, 59, 28, 0)
s = 42: (0, 21, 11, 15, 24, 76, 84, 20, 83, 64, 17, 0)
s = 43: (0, 14, 7, 16, 19, 60, 86, 37, 79, 54, 26, 0)
s = 44: (0, 14, 13, 14, 21, 45, 74, 21, 81, 72, 36, 0)
s = 45: (0, 9, 8, 13, 20, 80, 67, 15, 65, 91, 17, 0)
s = 46: (0, 20, 12, 14, 15, 78, 143, 16, 138, 52, 13, 0)
s = 47: (0, 10, 8, 17, 18, 71, 75, 23, 65, 43, 21, 0)
s = 48: (0, 8, 8, 10, 17, 59, 73, 17, 83, 54, 19, 0)
s = 49: (0, 22, 11, 14, 23, 78, 43, 36, 77, 41, 18, 0)
s = 50: (0, 15, 7, 9, 21, 60, 47, 21, 90, 62, 22, 0)
s = 51: (0, 13, 10, 15, 20, 75, 79, 20, 90, 40, 19, 0)
s = 52: (0, 12, 11, 9, 14, 67, 80, 26, 81, 38, 24, 0)
s = 53: (0, 12, 9, 22, 25, 67, 71, 35, 111, 39, 15, 0)
s = 54: (0, 11, 8, 13, 19, 41, 105, 13, 57, 53, 15, 0)
s = 55: (0, 14, 8, 9, 20, 38, 52, 38, 57, 102, 21, 0)
s = 56: (0, 17, 6, 8, 21, 91, 79, 31, 92, 67, 24, 0)
s = 57: (0, 14, 8, 14, 18, 58, 100, 37, 110, 68, 20, 0)
s = 58: (0, 16, 11, 17, 22, 63, 106, 24, 117, 40, 16, 0)
s = 59: (0, 19, 9, 13, 19, 57, 83, 32, 64, 59, 20, 0)
s = 60: (0, 8, 12, 13, 34, 41, 111, 21, 119, 78, 28, 0)
s = 61: (0, 10, 10, 14, 23, 76, 130, 29, 86, 66, 16, 0)
s = 62: (0, 10, 7, 18, 28, 50, 152, 22, 95, 57, 21, 0)
s = 63: (0, 10, 15, 18, 25, 58, 48, 18, 95, 53, 16, 0)
s = 64: (0, 16, 14, 16, 13, 51, 104, 36, 47, 77, 17, 0)
s = 65: (0, 9, 6, 17, 20, 64, 75, 23, 78, 68, 13, 0)
s = 66: (0, 22, 12, 12, 11, 43, 112, 25, 60, 41, 18, 0)
s = 67: (0, 13, 15, 11, 18, 53, 44, 27, 69, 47, 14, 0)
s = 68: (0, 18, 6, 14, 25, 70, 68, 25, 99, 47, 23, 0)
s = 69: (0, 8, 7, 13, 12, 43, 47, 23, 92, 62, 13, 0)
s = 70: (0, 22, 6, 13, 16, 46, 61, 26, 54, 66, 22, 0)
s = 71: (0, 12, 7, 8, 20, 45, 66, 16, 59, 94, 19, 0)
s = 72: (0, 20, 10, 12, 13, 43, 80, 24, 72, 93, 27, 0)
s = 73: (0, 16, 10, 23, 23, 37, 79, 18, 94, 93, 31, 0)
s = 74: (0, 11, 11, 11, 16, 42, 117, 18, 128, 55, 20, 0)
s = 75: (0, 9, 8, 18, 15, 37, 54, 23, 92, 67, 14, 0)
s = 76: (0, 19, 12, 9, 32, 43, 71, 36, 104, 62, 16, 0)
s = 77: (0, 15, 9, 10, 12, 53, 71, 23, 92, 74, 22, 0)
s = 78: (0, 10, 12, 7, 20, 47, 77, 36, 88, 70, 19, 0)
s = 79: (0, 15, 6, 9, 25, 102, 95, 24, 54, 37, 19, 0)
s = 80: (0, 8, 6, 17, 16, 106, 94, 28, 114, 84, 26, 0)
s = 81: (0, 9, 13, 11, 22, 76, 87, 18, 81, 77, 16, 0)
s = 82: (0, 10, 7, 12, 26, 50, 64, 16, 56, 77, 12, 0)
s = 83: (0, 15, 6, 10, 16, 83, 71, 17, 59, 94, 22, 0)
s = 84: (0, 12, 13, 9, 18, 74, 89, 16, 59, 90, 33, 0)
s = 85: (0, 11, 8, 17, 30, 42, 59, 23, 102, 89, 21, 0)
s = 86: (0, 12, 10, 10, 27, 66, 96, 30, 83, 64, 17, 0)
s = 87: (0, 20, 11, 14, 16, 62, 60, 22, 87, 58, 23, 0)
s = 88: (0, 18, 12, 20, 12, 67, 79, 30, 68, 62, 19, 0)
s = 89: (0, 14, 12, 10, 24, 84, 110, 18, 106, 86, 28, 0)
s = 90: (0, 13, 9, 10, 18, 57, 100, 20, 89, 71, 24, 0)
s = 91: (0, 13, 12, 13, 13, 40, 64, 25, 128, 73, 31, 0)
s = 92: (0, 19, 10, 17, 32, 100, 53, 25, 58, 54, 17, 0)
s = 93: (0, 16, 7, 17, 20, 68, 82, 27, 59, 47, 19, 0)
s = 94: (0, 15, 12, 11, 21, 56, 99, 30, 63, 69, 25, 0)
s = 95: (0, 15, 13, 12, 19, 107, 76, 19, 90, 43, 26, 0)
s = 96: (0, 15, 9, 18, 22, 84, 49, 34, 52, 51, 28, 0)
s = 97: (0, 9, 9, 16, 30, 95, 108, 16, 112, 78, 21, 0)
s = 98: (0, 10, 8, 16, 18, 62, 55, 26, 80, 40, 17, 0)
s = 99: (0, 10, 6, 14, 19, 56, 84, 30, 112, 86, 16, 0)
s = 100: (0, 13, 7, 14, 20, 48, 69, 20, 63, 66, 22, 0)
s = 101: (0, 15, 6, 15, 15, 39, 70, 36, 65, 85, 24, 0)
s = 102: (0, 15, 14, 19, 25, 65, 86, 33, 90, 79, 30, 0)
s = 103: (0, 13, 6, 12, 16, 44, 117, 32, 101, 93, 20, 0)
s = 104: (0, 17, 14, 19, 16, 58, 94, 31, 106, 127, 18, 0)
s = 105: (0, 17, 8, 13, 16, 71, 59, 35, 91, 71, 22, 0)
s = 106: (0, 12, 8, 21, 26, 70, 66, 19, 85, 52, 26, 0)
s = 107: (0, 11, 12, 9, 20, 47, 65, 22, 55, 48, 23, 0)
s = 108: (0, 18, 10, 13, 20, 37, 63, 19, 84, 47, 18, 0)
s = 109: (0, 16, 14, 14, 21, 52, 67, 19, 67, 48, 16, 0)
s = 110: (0, 19, 7, 8, 14, 49, 71, 28, 92, 121, 24, 0)
s = 111: (0, 13, 10, 21, 18, 47, 78, 19, 53, 70, 25, 0)
s = 112: (0, 12, 7, 17, 18, 68, 117, 25, 78, 65, 17, 0)
s = 113: (0, 16, 9, 19, 19, 73, 83, 21, 95, 46, 33, 0)
s = 114: (0, 18, 7, 8, 20, 46, 78, 24, 50, 52, 30, 0)
s = 115: (0, 20, 15, 10, 22, 47, 44, 37, 99, 63, 14, 0)
s = 116: (0, 8, 5, 8, 16, 37, 121, 17, 97, 53, 17, 0)
s = 117: (0, 22, 10, 17, 12, 54, 112, 33, 55, 79, 15, 0)
s = 118: (0, 13, 10, 15, 15, 37, 75, 23, 50, 104, 24, 0)
s = 119: (0, 13, 10, 15, 13, 57, 78, 25, 78, 62, 12, 0)
s = 120: (0, 14, 7, 14, 24, 73, 110, 36, 124, 84, 25, 0)
s = 121: (0, 16, 7, 13, 18, 34, 64, 22, 71, 54, 19, 0)
s = 122: (0, 9, 10, 14, 22, 51, 140, 27, 52, 64, 15, 0)
s = 123: (0, 23, 10, 11, 24, 57, 61, 30, 52, 41, 10, 0)
s = 124: (0, 9, 9, 19, 14, 59, 107, 31, 55, 51, 19, 0)
s = 125: (0, 12, 6, 18, 27, 72, 60, 25, 56, 73, 20, 0)
s = 126: (0, 10, 9, 13, 16, 111, 78, 30, 97, 49, 18, 0)
s = 127: (0, 8, 13, 13, 28, 45, 101, 21, 84, 79, 16, 0)
s = 128: (0, 11, 9, 10, 14, 49, 66, 18, 76, 53, 26, 0)
s = 129: (0, 11, 8, 20, 15, 61, 92, 36, 62, 35, 15, 0)
s = 130: (0, 7, 7, 13, 18, 42, 101, 17, 62, 62, 23, 0)
s = 131: (0, 9, 10, 23, 17, 48, 121, 35, 70, 42, 19, 0)
s = 132: (0, 17, 10, 13, 32, 77, 97, 40, 103, 78, 28, 0)
s = 133: (0, 18, 6, 17, 18, 73, 69, 29, 94, 101, 16, 0)
s = 134: (0, 19, 6, 9, 15, 66, 102, 27, 53, 97, 15, 0)
s = 135: (0, 10, 9, 12, 13, 54, 103, 17, 63, 44, 17, 0)
s = 136: (0, 11, 11, 10, 13, 104, 48, 16, 49, 61, 14, 0)
s = 137: (0, 15, 7, 10, 14, 53, 79, 29, 74, 53, 17, 0)
s = 138: (0, 17, 10, 9, 21, 66, 96, 31, 60, 84, 12, 0)
s = 139: (0, 7, 8, 8, 13, 45, 84, 23, 55, 66, 16, 0)
s = 140: (0, 15, 8, 8, 16, 55, 108, 36, 101, 66, 16, 0)
s = 141: (0, 12, 10, 13, 19, 105, 92, 20, 65, 72, 21, 0)
s = 142: (0, 12, 6, 13, 21, 58, 59, 28, 67, 64, 12, 0)
s = 143: (0, 12, 9, 10, 15, 50, 66, 19, 63, 81, 15, 0)
s = 144: (0, 18, 8, 14, 17, 76, 89, 31, 106, 72, 15, 0)
s = 145: (0, 8, 7, 10, 21, 95, 64, 43, 95, 62, 32, 0)
s = 146: (0, 13, 12, 13, 22, 81, 79, 32, 59, 74, 11, 0)
s = 147: (0, 13, 5, 10, 22, 102, 64, 39, 100, 60, 19, 0)
s = 148: (0, 10, 7, 17, 12, 49, 123, 23, 95, 44, 15, 0)
s = 149: (0, 12, 8, 16, 22, 43, 66, 17, 110, 77, 23, 0)
s = 150: (0, 13, 7, 12, 20, 51, 126, 21, 73, 82, 19, 0)
s = 151: (0, 15, 12, 10, 25, 104, 63, 27, 122, 67, 29, 0)
s = 152: (0, 7, 9, 10, 11, 57, 51, 21, 53, 103, 19, 0)
s = 153: (0, 14, 7, 13, 18, 40, 49, 20, 80, 45, 18, 0)
s = 154: (0, 12, 11, 12, 11, 80, 75, 35, 65, 47, 20, 0)
s = 155: (0, 14, 9, 9, 29, 66, 75, 22, 63, 85, 13, 0)
s = 156: (0, 8, 9, 10, 17, 70, 69, 28, 89, 74, 19, 0)
s = 157: (0, 14, 7, 9, 15, 74, 118, 20, 135, 57, 20, 0)
s = 158: (0, 10, 9, 11, 15, 70, 69, 32, 116, 65, 14, 0)
s = 159: (0, 9, 9, 19, 24, 87, 79, 20, 69, 61, 18, 0)
s = 160: (0, 8, 9, 9, 21, 58, 55, 32, 105, 34, 21, 0)
s = 161: (0, 12, 11, 17, 15, 40, 56, 26, 88, 55, 20, 0)
s = 162: (0, 10, 9, 14, 19, 66, 62, 20, 102, 61, 14, 0)
s = 163: (0, 13, 8, 17, 12, 74, 83, 19, 79, 45, 15, 0)
s = 164: (0, 9, 6, 10, 33, 43, 96, 27, 79, 54, 16, 0)
s = 165: (0, 13, 7, 13, 25, 43, 78, 35, 61, 49, 23, 0)
s = 166: (0, 14, 7, 13, 11, 49, 56, 37, 83, 54, 19, 0)
s = 167: (0, 9, 10, 14, 25, 107, 50, 14, 92, 57, 30, 0)
s = 168: (0, 13, 7, 10, 12, 57, 57, 31, 71, 83, 22, 0)
s = 169: (0, 10, 13, 17, 15, 32, 143, 27, 78, 94, 14, 0)
s = 170: (0, 14, 12, 12, 11, 72, 72, 42, 119, 59, 29, 0)
s = 171: (0, 13, 15, 11, 10, 74, 80, 22, 92, 65, 30, 0)
s = 172: (0, 15, 10, 22, 15, 53, 57, 20, 74, 89, 27, 0)
s = 173: (0, 19, 5, 8, 15, 60, 96, 32, 116, 57, 21, 0)
s = 174: (0, 11, 6, 15, 31, 77, 63, 34, 85, 52, 16, 0)
s = 175: (0, 17, 10, 9, 14, 63, 86, 21, 91, 93, 20, 0)
s = 176: (0, 9, 8, 12, 25, 55, 103, 22, 75, 55, 19, 0)
s = 177: (0, 11, 7, 17, 23, 67, 84, 27, 113, 65, 13, 0)
s = 178: (0, 10, 15, 11, 13, 58, 45, 23, 85, 58, 25, 0)
s = 179: (0, 9, 11, 12, 25, 74, 103, 31, 45, 45, 12, 0)
s = 180: (0, 10, 10, 9, 15, 48, 93, 35, 72, 49, 15, 0)
s = 181: (0, 13, 14, 17, 12, 58, 76, 23, 84, 82, 21, 0)
s = 182: (0, 17, 9, 8, 12, 60, 67, 22, 117, 65, 23, 0)
s = 183: (0, 19, 11, 20, 18, 52, 98, 27, 86, 63, 14, 0)
s = 184: (0, 16, 10, 14, 21, 110, 91, 27, 58, 85, 16, 0)
s = 185: (0, 13, 12, 16, 28, 42, 89, 21, 89, 41, 17, 0)
s = 186: (0, 12, 11, 10, 12, 66, 57, 34, 93, 116, 17, 0)
s = 187: (0, 11, 7, 10, 23, 76, 118, 17, 151, 62, 17, 0)
s = 188: (0, 11, 12, 10, 17, 39, 77, 14, 114, 71, 17, 0)
s = 189: (0, 9, 9, 10, 16, 82, 113, 18, 113, 74, 16, 0)
s = 190: (0, 8, 11, 14, 21, 41, 62, 14, 137, 58, 21, 0)
s = 191: (0, 11, 7, 14, 16, 33, 86, 23, 106, 61, 26, 0)
s = 192: (0, 13, 6, 14, 16, 50, 60, 24, 82, 57, 21, 0)
s = 193: (0, 17, 7, 10, 31, 48, 96, 25, 45, 108, 17, 0)
s = 194: (0, 22, 11, 18, 13, 71, 91, 32, 54, 69, 15, 0)
s = 195: (0, 13, 8, 20, 13, 76, 77, 17, 60, 46, 25, 0)
s = 196: (0, 13, 8, 9, 12, 76, 68, 15, 64, 54, 14, 0)
s = 197: (0, 18, 7, 11, 25, 52, 86, 30, 93, 83, 13, 0)
s = 198: (0, 12, 9, 15, 13, 56, 50, 15, 63, 60, 22, 0)
s = 199: (0, 15, 11, 9, 14, 59, 68, 13, 47, 45, 11, 0)
s = 200: (0, 16, 6, 11, 20, 44, 107, 19, 108, 55, 21, 0)
************************************************************************
ES/LS-VALUES:
jobnr.   ES(i)    LS(i)
------------------------------------------------------------------------
  0        0        0
  1        0       56
  2        0       87
  3        0       63
  4        1       58
  5        1       65
  6        6       64
  7       15       74
  8       18       78
  9       18       79
 10        1       89
 11       30       91
************************************************************************
BIG-M-VALUES:
M1 = 26, M2 = 154
************************************************************************
